s td 159 12 188
b 1 33 36 38
b 2 34 35 37
b 3 35 37 93
b 4 36 38 94
b 5 37 93 115
b 6 38 94 116
b 7 69 72 74
b 8 70 71 73
b 9 71 73 161
b 10 72 74 162
b 11 65 73 161
b 12 66 74 162
b 13 121 124 126
b 14 122 123 125
b 15 91 123 125
b 16 92 124 126
b 17 79 91 125
b 18 80 92 126
b 19 183 186 188
b 20 184 185 187
b 21 181 185 187
b 22 182 186 188
b 23 157 181 187
b 24 158 182 188
b 25 1 2 9 10 11 12 13 16 30 47
b 26 3 9 12 13 16
b 27 4 10 11 13 16
b 28 1 2 9 10 11 12 13 15 30 47
b 29 1 2 6 9 10 11 12 15 30
b 30 1 2 6 9 12 14 15 30
b 31 5 9 12 14 15
b 32 7 10 12 13 15
b 33 8 9 11 13 15
b 34 9 10 11 12 13 16 30 45 46 47 179 180
b 35 13 16 27 28 30 45 46 47 161 162 179 180
b 36 13 25 26 27 28 30 31 32 161 162 179 180
b 37 17 26 28 30 32
b 38 18 25 27 30 32
b 39 13 25 26 27 28 29 31 32
b 40 19 25 28 29 32
b 41 20 26 27 29 32
b 42 23 26 28 29 31
b 43 24 25 27 29 31
b 44 21 25 28 30 31
b 45 22 26 27 30 31
b 46 25 26 31 32 161 162 178 179 180
b 47 25 31 32 161 162 177 178 179 180
b 48 31 32 160 161 162 177 178 179 180
b 49 31 159 160 161 162 177 178 179 180
b 50 159 160 161 162 173 177 178 179 180
b 51 153 159 160 161 162 173 177 179
b 52 153 156 159 161 173 177 179
b 53 153 156 173 174 177 179
b 54 153 156 158 173 174
b 55 158 173 174 182
b 56 159 160 161 162 176 177 178 179 180
b 57 159 160 161 162 175 176 177 180
b 58 159 160 161 162 175 176 181
b 59 155 159 160 161 162 181
b 60 155 157 159 162 181
b 61 154 157 159 162
b 62 16 27 28 45 46 47 68 161 162
b 63 16 27 45 46 47 67 68 161 162
b 64 16 45 46 47 66 67 68 161 162
b 65 16 45 46 47 65 66 67 68 161
b 66 16 45 46 47 48 65 66 67 68
b 67 45 46 47 48 64 65 66 67 68
b 68 44 45 46 47 48 64
b 69 39 44 46 48
b 70 42 44 45 47
b 71 59 64 66 68
b 72 62 64 65 67
b 73 45 46 47 48 63 65 66 67 68
b 74 41 45 46 47 48 63
b 75 40 41 45 48 63
b 76 40 41 43 63
b 77 60 63 65 68
b 78 61 63 66 67
b 79 9 10 11 12 45 46 107 108 135 136 179 180
b 80 11 12 45 46 103 107 108 119 120 135 136 150
b 81 11 12 45 46 103 106 107 108 119 120 150
b 82 11 45 46 103 105 106 107 108 119 120 150
b 83 45 46 103 104 105 106 107 108 119 120 150
b 84 45 46 58 103 104 105 106 107 108 119 120
b 85 45 46 57 58 103 104 105 106 107 108 119
b 86 45 46 54 57 58 103 104 105 106 107 108
b 87 45 53 54 57 58 103 104 105 106 107 108
b 88 51 53 54 57 58 103 104 105 106 107 108
b 89 49 51 54 58 103 104 105 106 107 108
b 90 49 51 56 103 104 105 106 107 108
b 91 56 103 104 105 106 107 108 110
b 92 95 104 106 108 110
b 93 96 103 105 108 110
b 94 97 103 106 107 110
b 95 98 104 105 107 110
b 96 53 54 55 57 58 103 104 105 106 107 108
b 97 50 53 55 58
b 98 52 54 55 57
b 99 55 103 104 105 106 107 108 109
b 100 99 103 106 108 109
b 101 100 104 105 108 109
b 102 101 104 106 107 109
b 103 102 103 105 107 109
b 104 89 90 91 92 103 117 118 119 120 135 136 150
b 105 89 90 91 92 103 117 118 135 136 150 152
b 106 89 90 91 92 103 117 135 136 150 151 152
b 107 89 90 91 92 103 135 136 149 150 151 152
b 108 89 90 91 92 135 136 146 149 150 151 152
b 109 89 91 92 135 136 145 146 149 150 151 152
b 110 82 91 92 135 136 145 146 149 150 151 152
b 111 81 82 91 92 135 145 146 149 150 151 152
b 112 80 81 82 91 92 145 146 149 150 151 152
b 113 79 80 81 82 91 145 146 149 150 151 152
b 114 76 79 80 81 82 145 146 149 150 151 152
b 115 75 76 80 82 145 146 149 150 151 152
b 116 75 76 145 146 148 149 150 151 152
b 117 75 76 84 148
b 118 137 146 148 150 152
b 119 139 145 148 149 152
b 120 141 145 148 150 151
b 121 143 146 148 149 151
b 122 79 80 81 82 145 146 147 149 150 151 152
b 123 78 79 80 81 82 147
b 124 77 78 79 82 147
b 125 77 78 83 147
b 126 138 145 147 150 152
b 127 140 146 147 149 152
b 128 142 146 147 150 151
b 129 144 145 147 149 151
b 130 85 89 90 91 92 117 118 119 120
b 131 85 89 91 111 117 118 119 120
b 132 85 89 91 111 116 117 119
b 133 85 89 91 94 116
b 134 86 89 91 94
b 135 114 116 117 119
b 136 88 89 90 91 92 117 118 119 120
b 137 87 88 89 92 117 118 119 120
b 138 87 88 113 117 118 119 120
b 139 87 88 93 113 117 120
b 140 93 112 113 117 120
b 141 93 112 113 115
b 142 9 10 107 108 135 136 172 179 180
b 143 9 10 107 108 135 136 171 172 179
b 144 9 10 107 108 135 136 168 171 172
b 145 9 107 108 135 136 167 168 171 172
b 146 107 108 134 135 136 167 168 171 172
b 147 107 133 134 135 136 167 168 171 172
b 148 133 134 135 136 167 168 170 171 172
b 149 132 133 134 135 136 170
b 150 127 132 134 136
b 151 130 132 133 135
b 152 163 168 170 172
b 153 165 167 170 171
b 154 133 134 135 136 164 167 168 171 172
b 155 129 133 134 135 136 164 168 171
b 156 128 129 133 136 164 168 171
b 157 128 129 131 164 168 171
b 158 131 164 166 168 171
b 159 131 164 166 169
1 4
2 3
3 5
4 6
5 141
6 133
7 10
8 9
9 11
10 12
11 65
12 64
13 16
14 15
15 17
16 18
17 113
18 112
19 22
20 21
21 23
22 24
23 60
24 55
25 26
25 27
25 28
25 34
28 29
28 32
28 33
29 30
30 31
34 35
34 79
35 36
35 62
36 37
36 38
36 39
36 44
36 45
36 46
39 40
39 41
39 42
39 43
46 47
47 48
48 49
49 50
49 56
50 51
51 52
52 53
53 54
54 55
56 57
57 58
58 59
59 60
60 61
62 63
63 64
64 65
65 66
66 67
66 73
67 68
67 71
67 72
68 69
68 70
73 74
73 77
73 78
74 75
75 76
79 80
79 142
80 81
80 104
81 82
82 83
83 84
84 85
85 86
86 87
87 88
87 96
88 89
89 90
90 91
91 92
91 93
91 94
91 95
96 97
96 98
96 99
99 100
99 101
99 102
99 103
104 105
104 130
104 136
105 106
106 107
107 108
108 109
109 110
110 111
111 112
112 113
113 114
113 122
114 115
115 116
116 117
116 118
116 119
116 120
116 121
122 123
122 126
122 127
122 128
122 129
123 124
124 125
130 131
131 132
132 133
132 135
133 134
136 137
137 138
138 139
139 140
140 141
142 143
143 144
144 145
145 146
146 147
147 148
147 154
148 149
148 152
148 153
149 150
149 151
154 155
155 156
156 157
157 158
158 159
